183587
10,26,32,6,73,16,55,46,48,2,56,59,42,33,80,11,1,29,82,38,51,40,62,23,18,4,47,20,63,0,9,72,36,3,64,49,30,17,70,79,61,75,8,76,57,12,28,45,44,53,69,66,13,25,35,65,19,50,71,22,54,68,24,5,15,60,77,14,41,52,58,27,78,34,37,39,74,43,7,67,21,31,81
